pair_coeff         1    1 table /nobackup1b/users/qiyf/project_nucleolus/swf/src/md/energy_file//soft_core_lj_4kT.table soft_core_lj 1.12
pair_coeff         1    2 table /nobackup1b/users/qiyf/project_nucleolus/swf/src/md/energy_file//soft_core_lj_4kT.table soft_core_lj 1.12
pair_coeff         1    3 table /nobackup1b/users/qiyf/project_nucleolus/swf/src/md/energy_file//soft_core_lj_4kT.table soft_core_lj 1.12
pair_coeff         1    4 table /nobackup1b/users/qiyf/project_nucleolus/swf/src/md/energy_file//soft_core_lj_4kT.table soft_core_lj 1.12
pair_coeff         1    5 table /nobackup1b/users/qiyf/project_nucleolus/swf/src/md/energy_file//soft_core_lj_4kT.table soft_core_lj 1.12
pair_coeff         1    6 table /nobackup1b/users/qiyf/project_nucleolus/swf/src/md/energy_file//soft_core_lj_4kT.table soft_core_lj 1.12
pair_coeff         1    7 table /nobackup1b/users/qiyf/project_nucleolus/swf/src/md/energy_file//soft_core_lj_4kT.table soft_core_lj 1.12
pair_coeff         2    2 table /nobackup1b/users/qiyf/project_nucleolus/swf/src/md/energy_file//soft_core_lj_4kT.table soft_core_lj 1.12
pair_coeff         2    3 table /nobackup1b/users/qiyf/project_nucleolus/swf/src/md/energy_file//soft_core_lj_4kT.table soft_core_lj 1.12
pair_coeff         2    4 table /nobackup1b/users/qiyf/project_nucleolus/swf/src/md/energy_file//soft_core_lj_4kT.table soft_core_lj 1.12
pair_coeff         2    5 table /nobackup1b/users/qiyf/project_nucleolus/swf/src/md/energy_file//soft_core_lj_4kT.table soft_core_lj 1.12
pair_coeff         2    6 table /nobackup1b/users/qiyf/project_nucleolus/swf/src/md/energy_file//soft_core_lj_4kT.table soft_core_lj 1.12
pair_coeff         2    7 table /nobackup1b/users/qiyf/project_nucleolus/swf/src/md/energy_file//soft_core_lj_4kT.table soft_core_lj 1.12
pair_coeff         3    3 table /nobackup1b/users/qiyf/project_nucleolus/swf/src/md/energy_file//soft_core_lj_4kT.table soft_core_lj 1.12
pair_coeff         3    4 table /nobackup1b/users/qiyf/project_nucleolus/swf/src/md/energy_file//soft_core_lj_4kT.table soft_core_lj 1.12
pair_coeff         3    5 table /nobackup1b/users/qiyf/project_nucleolus/swf/src/md/energy_file//soft_core_lj_4kT.table soft_core_lj 1.12
pair_coeff         3    6 table /nobackup1b/users/qiyf/project_nucleolus/swf/src/md/energy_file//soft_core_lj_4kT.table soft_core_lj 1.12
pair_coeff         3    7 table /nobackup1b/users/qiyf/project_nucleolus/swf/src/md/energy_file//soft_core_lj_4kT.table soft_core_lj 1.12
pair_coeff         4    4 table /nobackup1b/users/qiyf/project_nucleolus/swf/src/md/energy_file//soft_core_lj_4kT.table soft_core_lj 1.12
pair_coeff         4    5 table /nobackup1b/users/qiyf/project_nucleolus/swf/src/md/energy_file//soft_core_lj_4kT.table soft_core_lj 1.12
pair_coeff         4    6 table /nobackup1b/users/qiyf/project_nucleolus/swf/src/md/energy_file//soft_core_lj_4kT.table soft_core_lj 1.12
pair_coeff         4    7 table /nobackup1b/users/qiyf/project_nucleolus/swf/src/md/energy_file//soft_core_lj_4kT.table soft_core_lj 1.12
pair_coeff         5    5 table /nobackup1b/users/qiyf/project_nucleolus/swf/src/md/energy_file//soft_core_lj_4kT.table soft_core_lj 1.12
pair_coeff         5    6 table /nobackup1b/users/qiyf/project_nucleolus/swf/src/md/energy_file//soft_core_lj_4kT.table soft_core_lj 1.12
pair_coeff         5    7 table /nobackup1b/users/qiyf/project_nucleolus/swf/src/md/energy_file//soft_core_lj_4kT.table soft_core_lj 1.12
pair_coeff         6    6 table /nobackup1b/users/qiyf/project_nucleolus/swf/src/md/energy_file//soft_core_lj_4kT.table soft_core_lj 1.12
pair_coeff         6    7 table /nobackup1b/users/qiyf/project_nucleolus/swf/src/md/energy_file//soft_core_lj_4kT.table soft_core_lj 1.12
pair_coeff         7    7 table /nobackup1b/users/qiyf/project_nucleolus/swf/src/md/energy_file//soft_core_lj_4kT.table soft_core_lj 1.12
